TCS_Benchmarks/redos_fix/snort4_output_distinct_101_100_1_0.smt2
(set-logic QF_S)
(declare-const x String)
(assert (str.in.re x (re.inter  (re.++ (re.* (re.comp  (str.to.re "\u{26}")) )  (re.++  (re.union  (str.to.re "\u{43}") (re.union  (str.to.re "\u{63}") (re.union  (str.to.re "\u{7c}") (re.union  (str.to.re "\u{25}") (re.union  (str.to.re "\u{37}") (re.union  (str.to.re "\u{28}")  (str.to.re "\u{29}")))))))  (re.union  (str.to.re "\u{43}") (re.union  (str.to.re "\u{63}") (re.union  (str.to.re "\u{7c}") (re.union  (str.to.re "\u{25}") (re.union  (str.to.re "\u{37}") (re.union  (str.to.re "\u{28}")  (str.to.re "\u{29}")))))))))  (re.++ (re.* (re.comp  (str.to.re "\u{26}")) ) (re.++  (re.++  (re.union  (str.to.re "\u{27}")  (re.++  (str.to.re "\u{25}") (re.++  (str.to.re "\u{32}")  (str.to.re "\u{37}"))))  (re.union  (str.to.re "\u{29}")  (re.++  (str.to.re "\u{25}") (re.++  (str.to.re "\u{32}")  (str.to.re "\u{39}")))))  (re.++  (re.union  (str.to.re "\u{43}") (re.union  (str.to.re "\u{63}") (re.union  (str.to.re "\u{7c}") (re.union  (str.to.re "\u{25}") (re.union  (str.to.re "\u{37}") (re.union  (str.to.re "\u{28}")  (str.to.re "\u{29}")))))))  (re.union  (str.to.re "\u{43}") (re.union  (str.to.re "\u{63}") (re.union  (str.to.re "\u{7c}") (re.union  (str.to.re "\u{25}") (re.union  (str.to.re "\u{37}") (re.union  (str.to.re "\u{28}")  (str.to.re "\u{29}")))))))))) )))
(check-sat)
(get-model)