TCS_Benchmarks/redos_fix/snort4_output_distinct_101_100_1_0.txt
([^&]*)([Cc\|%7()]{2})
([^&]*)(('|%27)(\)|%29))([Cc\|%7()]{2})